Route #1: 148 71 149 59 8 150 44 19 27 116 37 152
Route #2: 45 11 77 12 114 29 58 39 10 134 22 30
Route #3: 95 55 115 21 135 73 106 3 32 42 121 6
Route #4: 13 129 91 63 64 100 51 90 113 48 72 151
Route #5: 141 24 43 47 70 92 137 132 111 102 96 156
Route #6: 124 130 46 104 127 145 80 7 28 66 94 86
Route #7: 101 61 17 56 105 67 4 35 54 110 41 143
Route #8: 14 120 26 128 142 62 97 87 65 103 36 68
Route #9: 88 5 126 1 9 108 40 146 78 117 125 139
Route #10: 38 122 69 99 93 16 75 20 49 118 147 15
Route #11: 131 133 50 154 98 123 53 144 85 140 31 23
Route #12: 83 2 119 60 109 81 89 112 136 76 153 57
Route #13: 34 18 107 52 138 25 155 74 79 33 84 82
Cost 17260.167204963465